1 1 2 10 0 0 0 0 0 0
2 1 3 15 0 
3 1 2 6 0 0 0 0 0 0
4 1 2 20 0 0 0 0 0 0
5 0 2 30 0 0 0
6 0 3 10 0 0 0 0 0 0
7 0 3 15 0 0 0 0 0 0
8 1 3 6 0 0 
9 1 3 20 0 0 0 0 0 0
10 1 2 30 0 0 0 0
10 1 2 30 0 0 0 0 0 0
11 0 3 10 0
12 0 3 15 0 0 0 0 0 0
13 1 2 6 0 0 0 0 
14 1 2 20 0 0 0 0 0 0
15 1 2 30 0 0 0 0 0 0
16 0 2 10 0 
17 0 3 15 0 0 0 0 0 0
18 0 2 6 0 0 0 0 0 0
19 1 2 20 0 0 0 
20 0 3 10 0 0 0 0 0 0
21 0 3 15 0 0 0 0 0 0
22 1 2 6 0 0 
23 1 2 20 0 0 0 0 0 0
25 1 2 30 0 0 
26 0 2 10 0 0 0 0 0 0
28 0 3 15 0 0 
30 0 2 6 0 0 0 0 0 0
31 1 2 20 
40 0 2 30 0 0 0 0 0